NAME: ./prFile/tspFile/tsp_file66.tsp
COMMENT: TSP file generated by Python
TYPE: TSP
DIMENSION: 40
EDGE_WEIGHT_TYPE: EUC_2D
NODE_COORD_SECTION
1 80 49
2 79 56
3 3 10
4 43 88
5 39 94
6 38 77
7 52 4
8 100 61
9 50 9
10 2 12
11 16 38
12 36 56
13 37 78
14 75 71
15 55 30
16 13 74
17 65 27
18 81 58
19 81 34
20 48 46
21 39 11
22 80 12
23 20 20
24 43 36
25 16 18
26 50 4
27 66 66
28 72 64
29 64 78
30 94 26
31 44 1
32 42 22
33 25 16
34 65 23
35 37 68
36 94 42
37 9 100
38 28 57
39 23 36
40 19 16
EOF
